problem_generation/data/GISP/train/er_n=68_m=1357_p=0.60_SET2_setparam=100.00_alpha=0.50_297.lp
maximize
OBJ:100x0 + 100x1 + 100x2 + 100x3 + 100x4 + 100x5 + 100x6 + 100x7 + 100x8 + 100x9 + 100x10 + 100x11 + 100x12 + 100x13 + 100x14 + 100x15 + 100x16 + 100x17 + 100x18 + 100x19 + 100x20 + 100x21 + 100x22 + 100x23 + 100x24 + 100x25 + 100x26 + 100x27 + 100x28 + 100x29 + 100x30 + 100x31 + 100x32 + 100x33 + 100x34 + 100x35 + 100x36 + 100x37 + 100x38 + 100x39 + 100x40 + 100x41 + 100x42 + 100x43 + 100x44 + 100x45 + 100x46 + 100x47 + 100x48 + 100x49 + 100x50 + 100x51 + 100x52 + 100x53 + 100x54 + 100x55 + 100x56 + 100x57 + 100x58 + 100x59 + 100x60 + 100x61 + 100x62 + 100x63 + 100x64 + 100x65 + 100x66 + 100x67 - y55_57 - y7_26 - y15_39 - y28_67 - y29_32 - y18_44 - y8_9 - y0_5 - y40_41 - y29_50 - y6_57 - y29_59 - y21_55 - y21_64 - y10_27 - y10_36 - y33_38 - y25_34 - y33_47 - y3_6 - y10_54 - y33_56 - y44_56 - y3_15 - y22_28 - y51_64 - y22_37 - y14_33 - y22_46 - y13_65 - y55_61 - y17_44 - y36_57 - y47_57 - y17_53 - y36_66 - y28_62 - y9_58 - y6_34 - y29_36 - y9_67 - y0_9 - y48_58 - y6_52 - y29_63 - y10_31 - y25_29 - y33_42 - y2_54 - y3_19 - y14_19 - y43_55 - y13_51 - y16_56 - y1_67 - y16_65 - y36_52 - y28_48 - y28_57 - y6_29 - y58_67 - y9_62 - y6_38 - y48_53 - y21_36 - y6_47 - y40_49 - y40_58 - y6_65 - y39_62 - y33_37 - y3_5 - y51_63 - y1_53 - y24_55 - y14_32 - y36_38 - y28_34 - y55_60 - y17_43 - y28_43 - y36_56 - y36_65 - y47_65 - y58_62 - y21_22 - y50_67 - y29_44 - y6_51 - y39_57 - y2_17 - y20_62 - y10_39 - y12_58 - y23_58 - y2_35 - y24_32 - y3_18 - y32_54 - y13_50 - y24_50 - y35_59 - y1_66 - y28_29 - y36_42 - y28_38 - y17_47 - y6_10 - y28_56 - y6_28 - y6_37 - y20_39 - y20_57 - y54_59 - y12_53 - y23_53 - y20_66 - y32_40 - y51_53 - y24_36 - y35_36 - y32_49 - y16_32 - y24_45 - y43_58 - y35_54 - y16_50 - y13_63 - y35_63 - y16_59 - y17_24 - y46_60 - y5_40 - y6_23 - y27_55 - y50_57 - y8_51 - y19_60 - y30_60 - y11_56 - y20_43 - y31_43 - y31_61 - y32_35 - y16_18 - y4_62 - y24_40 - y13_49 - y35_49 - y46_55 - y46_64 - y57_64 - y5_35 - y9_33 - y26_67 - y27_50 - y30_46 - y19_64 - y20_29 - y42_66 - y0_60 - y20_38 - y23_34 - y20_47 - y12_43 - y23_43 - y23_52 - y1_15 - y53_62 - y13_35 - y24_35 - y4_66 - y16_31 - y34_67 - y45_67 - y37_63 - y16_49 - y9_10 - y38_46 - y5_21 - y15_53 - y38_55 - y9_28 - y38_64 - y5_39 - y18_58 - y8_32 - y27_45 - y30_41 - y27_54 - y19_50 - y19_59 - y20_24 - y42_61 - y0_64 - y11_64 - y31_42 - y4_25 - y12_38 - y23_38 - y20_51 - y12_47 - y1_10 - y12_56 - y16_17 - y16_26 - y22_60 - y45_62 - y16_35 - y1_46 - y5_7 - y15_48 - y49_50 - y38_59 - y7_53 - y8_27 - y19_27 - y19_36 - y50_51 - y30_45 - y42_47 - y19_54 - y30_54 - y0_50 - y12_15 - y11_59 - y23_24 - y41_60 - y20_37 - y12_33 - y23_42 - y1_5 - y1_14 - y56_57 - y14_60 - y26_34 - y15_52 - y15_61 - y38_63 - y49_63 - y7_57 - y0_18 - y7_66 - y11_18 - y30_31 - y11_45 - y30_58 - y31_32 - y33_51 - y23_28 - y44_60 - y25_56 - y22_41 - y34_52 - y64_65 - y14_46 - y3_46 - y22_59 - y37_48 - y15_20 - y14_64 - y26_29 - y5_6 - y7_25 - y26_38 - y18_43 - y26_65 - y27_30 - y48_62 - y29_67 - y8_44 - y19_44 - y12_14 - y33_46 - y4_19 - y10_62 - y33_64 - y44_64 - y45_47 - y37_43 - y22_54 - y37_52 - y22_63 - y15_42 - y26_42 - y7_38 - y7_47 - y18_47 - y0_8 - y11_17 - y8_30 - y48_66 - y0_35 - y4_14 - y44_50 - y41_63 - y25_64 - y14_27 - y3_36 - y37_38 - y3_45 - y3_54 - y15_19 - y14_63 - y26_28 - y55_64 - y18_24 - y36_60 - y47_60 - y0_12 - y19_25 - y48_61 - y6_64 - y29_66 - y25_41 - y25_50 - y22_26 - y3_22 - y14_22 - y22_35 - y2_66 - y3_31 - y32_67 - y22_53 - y14_49 - y55_59 - y36_55 - y17_51 - y47_64 - y59_66 - y17_60 - y28_60 - y7_37 - y9_56 - y8_11 - y48_56 - y21_39 - y40_52 - y6_59 - y10_29 - y62_67 - y2_25 - y33_40 - y2_34 - y44_49 - y2_52 - y32_53 - y2_61 - y32_62 - y22_39 - y3_35 - y3_44 - y47_50 - y18_23 - y9_42 - y36_59 - y59_61 - y28_64 - y6_27 - y6_45 - y10_15 - y6_63 - y54_58 - y33_35 - y2_29 - y20_65 - y54_67 - y10_51 - y51_52 - y22_25 - y14_21 - y32_57 - y13_53 - y24_53 - y35_53 - y1_60 - y24_62 - y16_58 - y17_32 - y28_32 - y7_9 - y55_58 - y17_41 - y36_54 - y47_54 - y28_50 - y6_31 - y29_33 - y29_51 - y6_58 - y2_6 - y39_64 - y20_60 - y10_37 - y23_65 - y2_42 - y35_39 - y43_52 - y13_48 - y35_48 - y14_25 - y13_57 - y17_18 - y24_66 - y17_27 - y9_23 - y5_34 - y47_49 - y9_32 - y5_43 - y36_58 - y9_41 - y28_63 - y9_59 - y50_60 - y6_44 - y21_42 - y31_46 - y39_59 - y31_55 - y54_57 - y23_51 - y2_28 - y20_64 - y54_66 - y23_60 - y32_47 - y43_47 - y32_56 - y13_52 - y24_52 - y16_48 - y24_61 - y46_67 - y36_44 - y17_40 - y9_36 - y6_21 - y58_59 - y42_51 - y50_64 - y6_39 - y19_67 - y30_67 - y10_18 - y2_14 - y20_50 - y39_63 - y12_55 - y1_27 - y24_29 - y4_60 - y32_42 - y32_51 - y16_34 - y43_51 - y13_47 - y24_47 - y13_56 - y24_56 - y65_66 - y5_24 - y46_62 - y38_58 - y49_58 - y5_33 - y38_67 - y28_44 - y9_40 - y6_16 - y6_25 - y58_63 - y8_53 - y19_53 - y0_49 - y30_62 - y0_58 - y11_58 - y20_45 - y20_54 - y54_56 - y12_50 - y13_15 - y20_63 - y53_60 - y16_20 - y1_31 - y16_29 - y34_65 - y13_42 - y24_42 - y24_51 - y1_58 - y5_28 - y17_30 - y46_66 - y9_26 - y9_35 - y27_34 - y18_65 - y27_43 - y19_39 - y19_48 - y30_48 - y42_50 - y11_44 - y50_63 - y19_66 - y20_31 - y30_66 - y23_27 - y39_53 - y12_36 - y31_49 - y1_8 - y31_58 - y53_55 - y23_63 - y13_28 - y53_64 - y1_35 - y16_33 - y38_39 - y5_14 - y46_61 - y5_32 - y15_64 - y26_64 - y49_66 - y27_47 - y0_30 - y19_43 - y27_56 - y11_39 - y27_65 - y0_48 - y12_13 - y19_61 - y4_18 - y41_67 - y52_67 - y31_44 - y12_40 - y1_3 - y23_40 - y1_12 - y45_46 - y34_55 - y37_51 - y46_47 - y15_41 - y5_18 - y9_16 - y49_52 - y18_46 - y38_61 - y7_64 - y18_64 - y11_25 - y27_51 - y8_47 - y42_49 - y0_43 - y8_56 - y60_66 - y11_61 - y23_26 - y41_62 - y52_62 - y12_35 - y10_65 - y33_67 - y25_63 - y34_41 - y1_16 - y34_50 - y1_25 - y45_59 - y14_53 - y14_62 - y15_36 - y15_45 - y38_47 - y15_54 - y15_63 - y27_28 - y18_59 - y7_59 - y8_24 - y0_20 - y11_20 - y0_29 - y11_29 - y8_42 - y29_65 - y63_67 - y11_38 - y30_51 - y0_47 - y11_47 - y41_57 - y52_57 - y4_26 - y25_58 - y25_67 - y34_45 - y53_58 - y3_39 - y22_52 - y34_54 - y7_18 - y15_31 - y59_65 - y26_40 - y7_54 - y18_54 - y0_15 - y11_15 - y8_28 - y48_64 - y40_60 - y8_37 - y19_37 - y11_33 - y21_65 - y0_42 - y11_42 - y12_16 - y41_52 - y60_65 - y33_48 - y10_55 - y2_60 - y3_34 - y34_49 - y37_45 - y22_56 - y37_54 - y3_61 - y14_61 - y55_62 - y7_22 - y15_44 - y17_63 - y18_40 - y0_1 - y7_49 - y0_10 - y40_46 - y19_23 - y0_28 - y6_62 - y21_60 - y52_56 - y25_39 - y41_65 - y25_48 - y22_24 - y2_55 - y14_20 - y25_57 - y22_33 - y14_29 - y22_42 - y34_44 - y3_38 - y3_56
 Subject to
C1: x0+x1-y0_1 <=1 
C2: x0+x4 <=1 
C3: x0+x5-y0_5 <=1 
C4: x0+x6 <=1 
C5: x0+x7 <=1 
C6: x0+x8-y0_8 <=1 
C7: x0+x9-y0_9 <=1 
C8: x0+x10-y0_10 <=1 
C9: x0+x12-y0_12 <=1 
C10: x0+x13 <=1 
C11: x0+x14 <=1 
C12: x0+x15-y0_15 <=1 
C13: x0+x18-y0_18 <=1 
C14: x0+x20-y0_20 <=1 
C15: x0+x21 <=1 
C16: x0+x23 <=1 
C17: x0+x27 <=1 
C18: x0+x28-y0_28 <=1 
C19: x0+x29-y0_29 <=1 
C20: x0+x30-y0_30 <=1 
C21: x0+x32 <=1 
C22: x0+x35-y0_35 <=1 
C23: x0+x36 <=1 
C24: x0+x37 <=1 
C25: x0+x41 <=1 
C26: x0+x42-y0_42 <=1 
C27: x0+x43-y0_43 <=1 
C28: x0+x45 <=1 
C29: x0+x46 <=1 
C30: x0+x47-y0_47 <=1 
C31: x0+x48-y0_48 <=1 
C32: x0+x49-y0_49 <=1 
C33: x0+x50-y0_50 <=1 
C34: x0+x52 <=1 
C35: x0+x54 <=1 
C36: x0+x56 <=1 
C37: x0+x58-y0_58 <=1 
C38: x0+x59 <=1 
C39: x0+x60-y0_60 <=1 
C40: x0+x61 <=1 
C41: x0+x62 <=1 
C42: x0+x64-y0_64 <=1 
C43: x0+x66 <=1 
C44: x0+x67 <=1 
C45: x1+x2 <=1 
C46: x1+x3-y1_3 <=1 
C47: x1+x4 <=1 
C48: x1+x5-y1_5 <=1 
C49: x1+x7 <=1 
C50: x1+x8-y1_8 <=1 
C51: x1+x9 <=1 
C52: x1+x10-y1_10 <=1 
C53: x1+x11 <=1 
C54: x1+x12-y1_12 <=1 
C55: x1+x13 <=1 
C56: x1+x14-y1_14 <=1 
C57: x1+x15-y1_15 <=1 
C58: x1+x16-y1_16 <=1 
C59: x1+x21 <=1 
C60: x1+x23 <=1 
C61: x1+x25-y1_25 <=1 
C62: x1+x26 <=1 
C63: x1+x27-y1_27 <=1 
C64: x1+x28 <=1 
C65: x1+x31-y1_31 <=1 
C66: x1+x35-y1_35 <=1 
C67: x1+x38 <=1 
C68: x1+x40 <=1 
C69: x1+x43 <=1 
C70: x1+x44 <=1 
C71: x1+x45 <=1 
C72: x1+x46-y1_46 <=1 
C73: x1+x49 <=1 
C74: x1+x50 <=1 
C75: x1+x51 <=1 
C76: x1+x52 <=1 
C77: x1+x53-y1_53 <=1 
C78: x1+x54 <=1 
C79: x1+x58-y1_58 <=1 
C80: x1+x59 <=1 
C81: x1+x60-y1_60 <=1 
C82: x1+x62 <=1 
C83: x1+x64 <=1 
C84: x1+x66-y1_66 <=1 
C85: x1+x67-y1_67 <=1 
C86: x2+x4 <=1 
C87: x2+x5 <=1 
C88: x2+x6-y2_6 <=1 
C89: x2+x8 <=1 
C90: x2+x9 <=1 
C91: x2+x11 <=1 
C92: x2+x13 <=1 
C93: x2+x14-y2_14 <=1 
C94: x2+x15 <=1 
C95: x2+x16 <=1 
C96: x2+x17-y2_17 <=1 
C97: x2+x19 <=1 
C98: x2+x22 <=1 
C99: x2+x25-y2_25 <=1 
C100: x2+x26 <=1 
C101: x2+x28-y2_28 <=1 
C102: x2+x29-y2_29 <=1 
C103: x2+x31 <=1 
C104: x2+x33 <=1 
C105: x2+x34-y2_34 <=1 
C106: x2+x35-y2_35 <=1 
C107: x2+x36 <=1 
C108: x2+x37 <=1 
C109: x2+x38 <=1 
C110: x2+x39 <=1 
C111: x2+x41 <=1 
C112: x2+x42-y2_42 <=1 
C113: x2+x48 <=1 
C114: x2+x49 <=1 
C115: x2+x52-y2_52 <=1 
C116: x2+x54-y2_54 <=1 
C117: x2+x55-y2_55 <=1 
C118: x2+x56 <=1 
C119: x2+x60-y2_60 <=1 
C120: x2+x61-y2_61 <=1 
C121: x2+x66-y2_66 <=1 
C122: x3+x5-y3_5 <=1 
C123: x3+x6-y3_6 <=1 
C124: x3+x7 <=1 
C125: x3+x8 <=1 
C126: x3+x10 <=1 
C127: x3+x11 <=1 
C128: x3+x12 <=1 
C129: x3+x15-y3_15 <=1 
C130: x3+x16 <=1 
C131: x3+x17 <=1 
C132: x3+x18-y3_18 <=1 
C133: x3+x19-y3_19 <=1 
C134: x3+x20 <=1 
C135: x3+x21 <=1 
C136: x3+x22-y3_22 <=1 
C137: x3+x23 <=1 
C138: x3+x26 <=1 
C139: x3+x29 <=1 
C140: x3+x31-y3_31 <=1 
C141: x3+x33 <=1 
C142: x3+x34-y3_34 <=1 
C143: x3+x35-y3_35 <=1 
C144: x3+x36-y3_36 <=1 
C145: x3+x37 <=1 
C146: x3+x38-y3_38 <=1 
C147: x3+x39-y3_39 <=1 
C148: x3+x40 <=1 
C149: x3+x41 <=1 
C150: x3+x43 <=1 
C151: x3+x44-y3_44 <=1 
C152: x3+x45-y3_45 <=1 
C153: x3+x46-y3_46 <=1 
C154: x3+x48 <=1 
C155: x3+x54-y3_54 <=1 
C156: x3+x56-y3_56 <=1 
C157: x3+x61-y3_61 <=1 
C158: x3+x63 <=1 
C159: x4+x6 <=1 
C160: x4+x7 <=1 
C161: x4+x8 <=1 
C162: x4+x9 <=1 
C163: x4+x10 <=1 
C164: x4+x11 <=1 
C165: x4+x14-y4_14 <=1 
C166: x4+x15 <=1 
C167: x4+x16 <=1 
C168: x4+x18-y4_18 <=1 
C169: x4+x19-y4_19 <=1 
C170: x4+x20 <=1 
C171: x4+x21 <=1 
C172: x4+x22 <=1 
C173: x4+x25-y4_25 <=1 
C174: x4+x26-y4_26 <=1 
C175: x4+x27 <=1 
C176: x4+x30 <=1 
C177: x4+x35 <=1 
C178: x4+x36 <=1 
C179: x4+x38 <=1 
C180: x4+x39 <=1 
C181: x4+x43 <=1 
C182: x4+x44 <=1 
C183: x4+x49 <=1 
C184: x4+x51 <=1 
C185: x4+x56 <=1 
C186: x4+x57 <=1 
C187: x4+x59 <=1 
C188: x4+x60-y4_60 <=1 
C189: x4+x62-y4_62 <=1 
C190: x4+x64 <=1 
C191: x4+x65 <=1 
C192: x4+x66-y4_66 <=1 
C193: x5+x6-y5_6 <=1 
C194: x5+x7-y5_7 <=1 
C195: x5+x9 <=1 
C196: x5+x14-y5_14 <=1 
C197: x5+x18-y5_18 <=1 
C198: x5+x19 <=1 
C199: x5+x20 <=1 
C200: x5+x21-y5_21 <=1 
C201: x5+x22 <=1 
C202: x5+x24-y5_24 <=1 
C203: x5+x26 <=1 
C204: x5+x28-y5_28 <=1 
C205: x5+x31 <=1 
C206: x5+x32-y5_32 <=1 
C207: x5+x33-y5_33 <=1 
C208: x5+x34-y5_34 <=1 
C209: x5+x35-y5_35 <=1 
C210: x5+x36 <=1 
C211: x5+x39-y5_39 <=1 
C212: x5+x40-y5_40 <=1 
C213: x5+x42 <=1 
C214: x5+x43-y5_43 <=1 
C215: x5+x47 <=1 
C216: x5+x49 <=1 
C217: x5+x52 <=1 
C218: x5+x53 <=1 
C219: x5+x57 <=1 
C220: x5+x60 <=1 
C221: x5+x61 <=1 
C222: x5+x62 <=1 
C223: x5+x64 <=1 
C224: x6+x8 <=1 
C225: x6+x10-y6_10 <=1 
C226: x6+x13 <=1 
C227: x6+x15 <=1 
C228: x6+x16-y6_16 <=1 
C229: x6+x17 <=1 
C230: x6+x19 <=1 
C231: x6+x20 <=1 
C232: x6+x21-y6_21 <=1 
C233: x6+x23-y6_23 <=1 
C234: x6+x25-y6_25 <=1 
C235: x6+x26 <=1 
C236: x6+x27-y6_27 <=1 
C237: x6+x28-y6_28 <=1 
C238: x6+x29-y6_29 <=1 
C239: x6+x30 <=1 
C240: x6+x31-y6_31 <=1 
C241: x6+x32 <=1 
C242: x6+x33 <=1 
C243: x6+x34-y6_34 <=1 
C244: x6+x37-y6_37 <=1 
C245: x6+x38-y6_38 <=1 
C246: x6+x39-y6_39 <=1 
C247: x6+x40 <=1 
C248: x6+x44-y6_44 <=1 
C249: x6+x45-y6_45 <=1 
C250: x6+x46 <=1 
C251: x6+x47-y6_47 <=1 
C252: x6+x49 <=1 
C253: x6+x50 <=1 
C254: x6+x51-y6_51 <=1 
C255: x6+x52-y6_52 <=1 
C256: x6+x57-y6_57 <=1 
C257: x6+x58-y6_58 <=1 
C258: x6+x59-y6_59 <=1 
C259: x6+x60 <=1 
C260: x6+x62-y6_62 <=1 
C261: x6+x63-y6_63 <=1 
C262: x6+x64-y6_64 <=1 
C263: x6+x65-y6_65 <=1 
C264: x6+x67 <=1 
C265: x7+x8 <=1 
C266: x7+x9-y7_9 <=1 
C267: x7+x11 <=1 
C268: x7+x12 <=1 
C269: x7+x15 <=1 
C270: x7+x16 <=1 
C271: x7+x18-y7_18 <=1 
C272: x7+x22-y7_22 <=1 
C273: x7+x23 <=1 
C274: x7+x24 <=1 
C275: x7+x25-y7_25 <=1 
C276: x7+x26-y7_26 <=1 
C277: x7+x28 <=1 
C278: x7+x29 <=1 
C279: x7+x30 <=1 
C280: x7+x33 <=1 
C281: x7+x37-y7_37 <=1 
C282: x7+x38-y7_38 <=1 
C283: x7+x40 <=1 
C284: x7+x42 <=1 
C285: x7+x47-y7_47 <=1 
C286: x7+x49-y7_49 <=1 
C287: x7+x50 <=1 
C288: x7+x51 <=1 
C289: x7+x53-y7_53 <=1 
C290: x7+x54-y7_54 <=1 
C291: x7+x56 <=1 
C292: x7+x57-y7_57 <=1 
C293: x7+x59-y7_59 <=1 
C294: x7+x62 <=1 
C295: x7+x63 <=1 
C296: x7+x64-y7_64 <=1 
C297: x7+x65 <=1 
C298: x7+x66-y7_66 <=1 
C299: x7+x67 <=1 
C300: x8+x9-y8_9 <=1 
C301: x8+x10 <=1 
C302: x8+x11-y8_11 <=1 
C303: x8+x12 <=1 
C304: x8+x17 <=1 
C305: x8+x18 <=1 
C306: x8+x20 <=1 
C307: x8+x23 <=1 
C308: x8+x24-y8_24 <=1 
C309: x8+x26 <=1 
C310: x8+x27-y8_27 <=1 
C311: x8+x28-y8_28 <=1 
C312: x8+x29 <=1 
C313: x8+x30-y8_30 <=1 
C314: x8+x32-y8_32 <=1 
C315: x8+x33 <=1 
C316: x8+x34 <=1 
C317: x8+x35 <=1 
C318: x8+x37-y8_37 <=1 
C319: x8+x38 <=1 
C320: x8+x42-y8_42 <=1 
C321: x8+x44-y8_44 <=1 
C322: x8+x47-y8_47 <=1 
C323: x8+x48 <=1 
C324: x8+x50 <=1 
C325: x8+x51-y8_51 <=1 
C326: x8+x52 <=1 
C327: x8+x53-y8_53 <=1 
C328: x8+x56-y8_56 <=1 
C329: x8+x59 <=1 
C330: x8+x62 <=1 
C331: x8+x63 <=1 
C332: x8+x64 <=1 
C333: x9+x10-y9_10 <=1 
C334: x9+x11 <=1 
C335: x9+x13 <=1 
C336: x9+x14 <=1 
C337: x9+x15 <=1 
C338: x9+x16-y9_16 <=1 
C339: x9+x17 <=1 
C340: x9+x22 <=1 
C341: x9+x23-y9_23 <=1 
C342: x9+x26-y9_26 <=1 
C343: x9+x27 <=1 
C344: x9+x28-y9_28 <=1 
C345: x9+x30 <=1 
C346: x9+x32-y9_32 <=1 
C347: x9+x33-y9_33 <=1 
C348: x9+x35-y9_35 <=1 
C349: x9+x36-y9_36 <=1 
C350: x9+x37 <=1 
C351: x9+x38 <=1 
C352: x9+x40-y9_40 <=1 
C353: x9+x41-y9_41 <=1 
C354: x9+x42-y9_42 <=1 
C355: x9+x43 <=1 
C356: x9+x44 <=1 
C357: x9+x46 <=1 
C358: x9+x48 <=1 
C359: x9+x50 <=1 
C360: x9+x52 <=1 
C361: x9+x56-y9_56 <=1 
C362: x9+x58-y9_58 <=1 
C363: x9+x59-y9_59 <=1 
C364: x9+x60 <=1 
C365: x9+x62-y9_62 <=1 
C366: x9+x64 <=1 
C367: x9+x65 <=1 
C368: x9+x66 <=1 
C369: x9+x67-y9_67 <=1 
C370: x10+x12 <=1 
C371: x10+x15-y10_15 <=1 
C372: x10+x18-y10_18 <=1 
C373: x10+x22 <=1 
C374: x10+x23 <=1 
C375: x10+x24 <=1 
C376: x10+x25 <=1 
C377: x10+x26 <=1 
C378: x10+x27-y10_27 <=1 
C379: x10+x28 <=1 
C380: x10+x29-y10_29 <=1 
C381: x10+x31-y10_31 <=1 
C382: x10+x32 <=1 
C383: x10+x34 <=1 
C384: x10+x35 <=1 
C385: x10+x36-y10_36 <=1 
C386: x10+x37-y10_37 <=1 
C387: x10+x38 <=1 
C388: x10+x39-y10_39 <=1 
C389: x10+x41 <=1 
C390: x10+x45 <=1 
C391: x10+x47 <=1 
C392: x10+x48 <=1 
C393: x10+x51-y10_51 <=1 
C394: x10+x54-y10_54 <=1 
C395: x10+x55-y10_55 <=1 
C396: x10+x59 <=1 
C397: x10+x62-y10_62 <=1 
C398: x10+x63 <=1 
C399: x10+x64 <=1 
C400: x10+x65-y10_65 <=1 
C401: x10+x66 <=1 
C402: x11+x12 <=1 
C403: x11+x13 <=1 
C404: x11+x15-y11_15 <=1 
C405: x11+x17-y11_17 <=1 
C406: x11+x18-y11_18 <=1 
C407: x11+x19 <=1 
C408: x11+x20-y11_20 <=1 
C409: x11+x22 <=1 
C410: x11+x23 <=1 
C411: x11+x25-y11_25 <=1 
C412: x11+x27 <=1 
C413: x11+x28 <=1 
C414: x11+x29-y11_29 <=1 
C415: x11+x30 <=1 
C416: x11+x31 <=1 
C417: x11+x33-y11_33 <=1 
C418: x11+x38-y11_38 <=1 
C419: x11+x39-y11_39 <=1 
C420: x11+x42-y11_42 <=1 
C421: x11+x44-y11_44 <=1 
C422: x11+x45-y11_45 <=1 
C423: x11+x46 <=1 
C424: x11+x47-y11_47 <=1 
C425: x11+x48 <=1 
C426: x11+x55 <=1 
C427: x11+x56-y11_56 <=1 
C428: x11+x57 <=1 
C429: x11+x58-y11_58 <=1 
C430: x11+x59-y11_59 <=1 
C431: x11+x61-y11_61 <=1 
C432: x11+x64-y11_64 <=1 
C433: x11+x65 <=1 
C434: x12+x13-y12_13 <=1 
C435: x12+x14-y12_14 <=1 
C436: x12+x15-y12_15 <=1 
C437: x12+x16-y12_16 <=1 
C438: x12+x17 <=1 
C439: x12+x19 <=1 
C440: x12+x22 <=1 
C441: x12+x23 <=1 
C442: x12+x24 <=1 
C443: x12+x25 <=1 
C444: x12+x26 <=1 
C445: x12+x27 <=1 
C446: x12+x32 <=1 
C447: x12+x33-y12_33 <=1 
C448: x12+x35-y12_35 <=1 
C449: x12+x36-y12_36 <=1 
C450: x12+x37 <=1 
C451: x12+x38-y12_38 <=1 
C452: x12+x39 <=1 
C453: x12+x40-y12_40 <=1 
C454: x12+x41 <=1 
C455: x12+x43-y12_43 <=1 
C456: x12+x44 <=1 
C457: x12+x45 <=1 
C458: x12+x47-y12_47 <=1 
C459: x12+x48 <=1 
C460: x12+x49 <=1 
C461: x12+x50-y12_50 <=1 
C462: x12+x52 <=1 
C463: x12+x53-y12_53 <=1 
C464: x12+x54 <=1 
C465: x12+x55-y12_55 <=1 
C466: x12+x56-y12_56 <=1 
C467: x12+x57 <=1 
C468: x12+x58-y12_58 <=1 
C469: x12+x60 <=1 
C470: x12+x61 <=1 
C471: x12+x62 <=1 
C472: x12+x63 <=1 
C473: x12+x64 <=1 
C474: x13+x14 <=1 
C475: x13+x15-y13_15 <=1 
C476: x13+x17 <=1 
C477: x13+x18 <=1 
C478: x13+x24 <=1 
C479: x13+x26 <=1 
C480: x13+x28-y13_28 <=1 
C481: x13+x30 <=1 
C482: x13+x33 <=1 
C483: x13+x34 <=1 
C484: x13+x35-y13_35 <=1 
C485: x13+x37 <=1 
C486: x13+x38 <=1 
C487: x13+x40 <=1 
C488: x13+x42-y13_42 <=1 
C489: x13+x43 <=1 
C490: x13+x44 <=1 
C491: x13+x45 <=1 
C492: x13+x46 <=1 
C493: x13+x47-y13_47 <=1 
C494: x13+x48-y13_48 <=1 
C495: x13+x49-y13_49 <=1 
C496: x13+x50-y13_50 <=1 
C497: x13+x51-y13_51 <=1 
C498: x13+x52-y13_52 <=1 
C499: x13+x53-y13_53 <=1 
C500: x13+x56-y13_56 <=1 
C501: x13+x57-y13_57 <=1 
C502: x13+x58 <=1 
C503: x13+x59 <=1 
C504: x13+x60 <=1 
C505: x13+x61 <=1 
C506: x13+x62 <=1 
C507: x13+x63-y13_63 <=1 
C508: x13+x65-y13_65 <=1 
C509: x13+x66 <=1 
C510: x14+x19-y14_19 <=1 
C511: x14+x20-y14_20 <=1 
C512: x14+x21-y14_21 <=1 
C513: x14+x22-y14_22 <=1 
C514: x14+x25-y14_25 <=1 
C515: x14+x27-y14_27 <=1 
C516: x14+x29-y14_29 <=1 
C517: x14+x30 <=1 
C518: x14+x31 <=1 
C519: x14+x32-y14_32 <=1 
C520: x14+x33-y14_33 <=1 
C521: x14+x34 <=1 
C522: x14+x40 <=1 
C523: x14+x41 <=1 
C524: x14+x42 <=1 
C525: x14+x44 <=1 
C526: x14+x46-y14_46 <=1 
C527: x14+x48 <=1 
C528: x14+x49-y14_49 <=1 
C529: x14+x51 <=1 
C530: x14+x53-y14_53 <=1 
C531: x14+x55 <=1 
C532: x14+x57 <=1 
C533: x14+x60-y14_60 <=1 
C534: x14+x61-y14_61 <=1 
C535: x14+x62-y14_62 <=1 
C536: x14+x63-y14_63 <=1 
C537: x14+x64-y14_64 <=1 
C538: x14+x66 <=1 
C539: x15+x17 <=1 
C540: x15+x18 <=1 
C541: x15+x19-y15_19 <=1 
C542: x15+x20-y15_20 <=1 
C543: x15+x23 <=1 
C544: x15+x25 <=1 
C545: x15+x28 <=1 
C546: x15+x29 <=1 
C547: x15+x31-y15_31 <=1 
C548: x15+x32 <=1 
C549: x15+x36-y15_36 <=1 
C550: x15+x37 <=1 
C551: x15+x39-y15_39 <=1 
C552: x15+x41-y15_41 <=1 
C553: x15+x42-y15_42 <=1 
C554: x15+x44-y15_44 <=1 
C555: x15+x45-y15_45 <=1 
C556: x15+x47 <=1 
C557: x15+x48-y15_48 <=1 
C558: x15+x52-y15_52 <=1 
C559: x15+x53-y15_53 <=1 
C560: x15+x54-y15_54 <=1 
C561: x15+x55 <=1 
C562: x15+x56 <=1 
C563: x15+x59 <=1 
C564: x15+x60 <=1 
C565: x15+x61-y15_61 <=1 
C566: x15+x63-y15_63 <=1 
C567: x15+x64-y15_64 <=1 
C568: x15+x65 <=1 
C569: x15+x67 <=1 
C570: x16+x17-y16_17 <=1 
C571: x16+x18-y16_18 <=1 
C572: x16+x20-y16_20 <=1 
C573: x16+x21 <=1 
C574: x16+x22 <=1 
C575: x16+x26-y16_26 <=1 
C576: x16+x27 <=1 
C577: x16+x28 <=1 
C578: x16+x29-y16_29 <=1 
C579: x16+x30 <=1 
C580: x16+x31-y16_31 <=1 
C581: x16+x32-y16_32 <=1 
C582: x16+x33-y16_33 <=1 
C583: x16+x34-y16_34 <=1 
C584: x16+x35-y16_35 <=1 
C585: x16+x42 <=1 
C586: x16+x44 <=1 
C587: x16+x45 <=1 
C588: x16+x47 <=1 
C589: x16+x48-y16_48 <=1 
C590: x16+x49-y16_49 <=1 
C591: x16+x50-y16_50 <=1 
C592: x16+x51 <=1 
C593: x16+x52 <=1 
C594: x16+x56-y16_56 <=1 
C595: x16+x58-y16_58 <=1 
C596: x16+x59-y16_59 <=1 
C597: x16+x65-y16_65 <=1 
C598: x16+x67 <=1 
C599: x17+x18-y17_18 <=1 
C600: x17+x23 <=1 
C601: x17+x24-y17_24 <=1 
C602: x17+x25 <=1 
C603: x17+x26 <=1 
C604: x17+x27-y17_27 <=1 
C605: x17+x28 <=1 
C606: x17+x30-y17_30 <=1 
C607: x17+x32-y17_32 <=1 
C608: x17+x37 <=1 
C609: x17+x38 <=1 
C610: x17+x39 <=1 
C611: x17+x40-y17_40 <=1 
C612: x17+x41-y17_41 <=1 
C613: x17+x42 <=1 
C614: x17+x43-y17_43 <=1 
C615: x17+x44-y17_44 <=1 
C616: x17+x47-y17_47 <=1 
C617: x17+x48 <=1 
C618: x17+x50 <=1 
C619: x17+x51-y17_51 <=1 
C620: x17+x52 <=1 
C621: x17+x53-y17_53 <=1 
C622: x17+x54 <=1 
C623: x17+x55 <=1 
C624: x17+x56 <=1 
C625: x17+x58 <=1 
C626: x17+x60-y17_60 <=1 
C627: x17+x62 <=1 
C628: x17+x63-y17_63 <=1 
C629: x17+x64 <=1 
C630: x17+x67 <=1 
C631: x18+x22 <=1 
C632: x18+x23-y18_23 <=1 
C633: x18+x24-y18_24 <=1 
C634: x18+x28 <=1 
C635: x18+x29 <=1 
C636: x18+x34 <=1 
C637: x18+x36 <=1 
C638: x18+x37 <=1 
C639: x18+x40-y18_40 <=1 
C640: x18+x42 <=1 
C641: x18+x43-y18_43 <=1 
C642: x18+x44-y18_44 <=1 
C643: x18+x46-y18_46 <=1 
C644: x18+x47-y18_47 <=1 
C645: x18+x52 <=1 
C646: x18+x54-y18_54 <=1 
C647: x18+x55 <=1 
C648: x18+x58-y18_58 <=1 
C649: x18+x59-y18_59 <=1 
C650: x18+x64-y18_64 <=1 
C651: x18+x65-y18_65 <=1 
C652: x19+x20 <=1 
C653: x19+x21 <=1 
C654: x19+x23-y19_23 <=1 
C655: x19+x25-y19_25 <=1 
C656: x19+x26 <=1 
C657: x19+x27-y19_27 <=1 
C658: x19+x28 <=1 
C659: x19+x30 <=1 
C660: x19+x33 <=1 
C661: x19+x35 <=1 
C662: x19+x36-y19_36 <=1 
C663: x19+x37-y19_37 <=1 
C664: x19+x39-y19_39 <=1 
C665: x19+x43-y19_43 <=1 
C666: x19+x44-y19_44 <=1 
C667: x19+x47 <=1 
C668: x19+x48-y19_48 <=1 
C669: x19+x50-y19_50 <=1 
C670: x19+x52 <=1 
C671: x19+x53-y19_53 <=1 
C672: x19+x54-y19_54 <=1 
C673: x19+x58 <=1 
C674: x19+x59-y19_59 <=1 
C675: x19+x60-y19_60 <=1 
C676: x19+x61-y19_61 <=1 
C677: x19+x64-y19_64 <=1 
C678: x19+x65 <=1 
C679: x19+x66-y19_66 <=1 
C680: x19+x67-y19_67 <=1 
C681: x20+x21 <=1 
C682: x20+x22 <=1 
C683: x20+x23 <=1 
C684: x20+x24-y20_24 <=1 
C685: x20+x27 <=1 
C686: x20+x29-y20_29 <=1 
C687: x20+x31-y20_31 <=1 
C688: x20+x34 <=1 
C689: x20+x35 <=1 
C690: x20+x36 <=1 
C691: x20+x37-y20_37 <=1 
C692: x20+x38-y20_38 <=1 
C693: x20+x39-y20_39 <=1 
C694: x20+x41 <=1 
C695: x20+x43-y20_43 <=1 
C696: x20+x45-y20_45 <=1 
C697: x20+x46 <=1 
C698: x20+x47-y20_47 <=1 
C699: x20+x48 <=1 
C700: x20+x50-y20_50 <=1 
C701: x20+x51-y20_51 <=1 
C702: x20+x52 <=1 
C703: x20+x54-y20_54 <=1 
C704: x20+x57-y20_57 <=1 
C705: x20+x59 <=1 
C706: x20+x60-y20_60 <=1 
C707: x20+x62-y20_62 <=1 
C708: x20+x63-y20_63 <=1 
C709: x20+x64-y20_64 <=1 
C710: x20+x65-y20_65 <=1 
C711: x20+x66-y20_66 <=1 
C712: x20+x67 <=1 
C713: x21+x22-y21_22 <=1 
C714: x21+x26 <=1 
C715: x21+x30 <=1 
C716: x21+x32 <=1 
C717: x21+x36-y21_36 <=1 
C718: x21+x39-y21_39 <=1 
C719: x21+x40 <=1 
C720: x21+x41 <=1 
C721: x21+x42-y21_42 <=1 
C722: x21+x43 <=1 
C723: x21+x44 <=1 
C724: x21+x45 <=1 
C725: x21+x46 <=1 
C726: x21+x50 <=1 
C727: x21+x51 <=1 
C728: x21+x53 <=1 
C729: x21+x55-y21_55 <=1 
C730: x21+x59 <=1 
C731: x21+x60-y21_60 <=1 
C732: x21+x61 <=1 
C733: x21+x64-y21_64 <=1 
C734: x21+x65-y21_65 <=1 
C735: x21+x67 <=1 
C736: x22+x24-y22_24 <=1 
C737: x22+x25-y22_25 <=1 
C738: x22+x26-y22_26 <=1 
C739: x22+x28-y22_28 <=1 
C740: x22+x29 <=1 
C741: x22+x32 <=1 
C742: x22+x33-y22_33 <=1 
C743: x22+x34 <=1 
C744: x22+x35-y22_35 <=1 
C745: x22+x37-y22_37 <=1 
C746: x22+x39-y22_39 <=1 
C747: x22+x41-y22_41 <=1 
C748: x22+x42-y22_42 <=1 
C749: x22+x46-y22_46 <=1 
C750: x22+x51 <=1 
C751: x22+x52-y22_52 <=1 
C752: x22+x53-y22_53 <=1 
C753: x22+x54-y22_54 <=1 
C754: x22+x55 <=1 
C755: x22+x56-y22_56 <=1 
C756: x22+x59-y22_59 <=1 
C757: x22+x60-y22_60 <=1 
C758: x22+x63-y22_63 <=1 
C759: x22+x65 <=1 
C760: x22+x67 <=1 
C761: x23+x24-y23_24 <=1 
C762: x23+x26-y23_26 <=1 
C763: x23+x27-y23_27 <=1 
C764: x23+x28-y23_28 <=1 
C765: x23+x31 <=1 
C766: x23+x32 <=1 
C767: x23+x34-y23_34 <=1 
C768: x23+x35 <=1 
C769: x23+x37 <=1 
C770: x23+x38-y23_38 <=1 
C771: x23+x40-y23_40 <=1 
C772: x23+x42-y23_42 <=1 
C773: x23+x43-y23_43 <=1 
C774: x23+x46 <=1 
C775: x23+x47 <=1 
C776: x23+x48 <=1 
C777: x23+x49 <=1 
C778: x23+x51-y23_51 <=1 
C779: x23+x52-y23_52 <=1 
C780: x23+x53-y23_53 <=1 
C781: x23+x58-y23_58 <=1 
C782: x23+x60-y23_60 <=1 
C783: x23+x61 <=1 
C784: x23+x62 <=1 
C785: x23+x63-y23_63 <=1 
C786: x23+x65-y23_65 <=1 
C787: x23+x66 <=1 
C788: x24+x26 <=1 
C789: x24+x28 <=1 
C790: x24+x29-y24_29 <=1 
C791: x24+x30 <=1 
C792: x24+x31 <=1 
C793: x24+x32-y24_32 <=1 
C794: x24+x34 <=1 
C795: x24+x35-y24_35 <=1 
C796: x24+x36-y24_36 <=1 
C797: x24+x37 <=1 
C798: x24+x39 <=1 
C799: x24+x40-y24_40 <=1 
C800: x24+x41 <=1 
C801: x24+x42-y24_42 <=1 
C802: x24+x44 <=1 
C803: x24+x45-y24_45 <=1 
C804: x24+x46 <=1 
C805: x24+x47-y24_47 <=1 
C806: x24+x48 <=1 
C807: x24+x49 <=1 
C808: x24+x50-y24_50 <=1 
C809: x24+x51-y24_51 <=1 
C810: x24+x52-y24_52 <=1 
C811: x24+x53-y24_53 <=1 
C812: x24+x55-y24_55 <=1 
C813: x24+x56-y24_56 <=1 
C814: x24+x61-y24_61 <=1 
C815: x24+x62-y24_62 <=1 
C816: x24+x66-y24_66 <=1 
C817: x25+x26 <=1 
C818: x25+x27 <=1 
C819: x25+x29-y25_29 <=1 
C820: x25+x30 <=1 
C821: x25+x31 <=1 
C822: x25+x32 <=1 
C823: x25+x34-y25_34 <=1 
C824: x25+x38 <=1 
C825: x25+x39-y25_39 <=1 
C826: x25+x40 <=1 
C827: x25+x41-y25_41 <=1 
C828: x25+x46 <=1 
C829: x25+x48-y25_48 <=1 
C830: x25+x50-y25_50 <=1 
C831: x25+x52 <=1 
C832: x25+x54 <=1 
C833: x25+x56-y25_56 <=1 
C834: x25+x57-y25_57 <=1 
C835: x25+x58-y25_58 <=1 
C836: x25+x59 <=1 
C837: x25+x62 <=1 
C838: x25+x63-y25_63 <=1 
C839: x25+x64-y25_64 <=1 
C840: x25+x66 <=1 
C841: x25+x67-y25_67 <=1 
C842: x26+x28-y26_28 <=1 
C843: x26+x29-y26_29 <=1 
C844: x26+x30 <=1 
C845: x26+x31 <=1 
C846: x26+x33 <=1 
C847: x26+x34-y26_34 <=1 
C848: x26+x38-y26_38 <=1 
C849: x26+x40-y26_40 <=1 
C850: x26+x42-y26_42 <=1 
C851: x26+x43 <=1 
C852: x26+x44 <=1 
C853: x26+x45 <=1 
C854: x26+x46 <=1 
C855: x26+x47 <=1 
C856: x26+x48 <=1 
C857: x26+x49 <=1 
C858: x26+x50 <=1 
C859: x26+x51 <=1 
C860: x26+x52 <=1 
C861: x26+x54 <=1 
C862: x26+x56 <=1 
C863: x26+x62 <=1 
C864: x26+x64-y26_64 <=1 
C865: x26+x65-y26_65 <=1 
C866: x26+x67-y26_67 <=1 
C867: x27+x28-y27_28 <=1 
C868: x27+x30-y27_30 <=1 
C869: x27+x32 <=1 
C870: x27+x33 <=1 
C871: x27+x34-y27_34 <=1 
C872: x27+x35 <=1 
C873: x27+x39 <=1 
C874: x27+x40 <=1 
C875: x27+x43-y27_43 <=1 
C876: x27+x45-y27_45 <=1 
C877: x27+x47-y27_47 <=1 
C878: x27+x49 <=1 
C879: x27+x50-y27_50 <=1 
C880: x27+x51-y27_51 <=1 
C881: x27+x53 <=1 
C882: x27+x54-y27_54 <=1 
C883: x27+x55-y27_55 <=1 
C884: x27+x56-y27_56 <=1 
C885: x27+x62 <=1 
C886: x27+x63 <=1 
C887: x27+x64 <=1 
C888: x27+x65-y27_65 <=1 
C889: x27+x66 <=1 
C890: x28+x29-y28_29 <=1 
C891: x28+x31 <=1 
C892: x28+x32-y28_32 <=1 
C893: x28+x33 <=1 
C894: x28+x34-y28_34 <=1 
C895: x28+x38-y28_38 <=1 
C896: x28+x43-y28_43 <=1 
C897: x28+x44-y28_44 <=1 
C898: x28+x46 <=1 
C899: x28+x48-y28_48 <=1 
C900: x28+x50-y28_50 <=1 
C901: x28+x51 <=1 
C902: x28+x52 <=1 
C903: x28+x54 <=1 
C904: x28+x55 <=1 
C905: x28+x56-y28_56 <=1 
C906: x28+x57-y28_57 <=1 
C907: x28+x58 <=1 
C908: x28+x59 <=1 
C909: x28+x60-y28_60 <=1 
C910: x28+x62-y28_62 <=1 
C911: x28+x63-y28_63 <=1 
C912: x28+x64-y28_64 <=1 
C913: x28+x67-y28_67 <=1 
C914: x29+x30 <=1 
C915: x29+x32-y29_32 <=1 
C916: x29+x33-y29_33 <=1 
C917: x29+x34 <=1 
C918: x29+x35 <=1 
C919: x29+x36-y29_36 <=1 
C920: x29+x43 <=1 
C921: x29+x44-y29_44 <=1 
C922: x29+x47 <=1 
C923: x29+x48 <=1 
C924: x29+x50-y29_50 <=1 
C925: x29+x51-y29_51 <=1 
C926: x29+x53 <=1 
C927: x29+x55 <=1 
C928: x29+x59-y29_59 <=1 
C929: x29+x61 <=1 
C930: x29+x63-y29_63 <=1 
C931: x29+x65-y29_65 <=1 
C932: x29+x66-y29_66 <=1 
C933: x29+x67-y29_67 <=1 
C934: x30+x31-y30_31 <=1 
C935: x30+x37 <=1 
C936: x30+x40 <=1 
C937: x30+x41-y30_41 <=1 
C938: x30+x43 <=1 
C939: x30+x44 <=1 
C940: x30+x45-y30_45 <=1 
C941: x30+x46-y30_46 <=1 
C942: x30+x48-y30_48 <=1 
C943: x30+x49 <=1 
C944: x30+x51-y30_51 <=1 
C945: x30+x52 <=1 
C946: x30+x53 <=1 
C947: x30+x54-y30_54 <=1 
C948: x30+x56 <=1 
C949: x30+x58-y30_58 <=1 
C950: x30+x60-y30_60 <=1 
C951: x30+x61 <=1 
C952: x30+x62-y30_62 <=1 
C953: x30+x63 <=1 
C954: x30+x65 <=1 
C955: x30+x66-y30_66 <=1 
C956: x30+x67-y30_67 <=1 
C957: x31+x32-y31_32 <=1 
C958: x31+x33 <=1 
C959: x31+x34 <=1 
C960: x31+x38 <=1 
C961: x31+x39 <=1 
C962: x31+x42-y31_42 <=1 
C963: x31+x43-y31_43 <=1 
C964: x31+x44-y31_44 <=1 
C965: x31+x46-y31_46 <=1 
C966: x31+x47 <=1 
C967: x31+x49-y31_49 <=1 
C968: x31+x51 <=1 
C969: x31+x54 <=1 
C970: x31+x55-y31_55 <=1 
C971: x31+x56 <=1 
C972: x31+x57 <=1 
C973: x31+x58-y31_58 <=1 
C974: x31+x59 <=1 
C975: x31+x60 <=1 
C976: x31+x61-y31_61 <=1 
C977: x31+x65 <=1 
C978: x31+x67 <=1 
C979: x32+x35-y32_35 <=1 
C980: x32+x36 <=1 
C981: x32+x38 <=1 
C982: x32+x40-y32_40 <=1 
C983: x32+x41 <=1 
C984: x32+x42-y32_42 <=1 
C985: x32+x43 <=1 
C986: x32+x45 <=1 
C987: x32+x47-y32_47 <=1 
C988: x32+x48 <=1 
C989: x32+x49-y32_49 <=1 
C990: x32+x51-y32_51 <=1 
C991: x32+x53-y32_53 <=1 
C992: x32+x54-y32_54 <=1 
C993: x32+x56-y32_56 <=1 
C994: x32+x57-y32_57 <=1 
C995: x32+x58 <=1 
C996: x32+x60 <=1 
C997: x32+x61 <=1 
C998: x32+x62-y32_62 <=1 
C999: x32+x66 <=1 
C1000: x32+x67-y32_67 <=1 
C1001: x33+x34 <=1 
C1002: x33+x35-y33_35 <=1 
C1003: x33+x36 <=1 
C1004: x33+x37-y33_37 <=1 
C1005: x33+x38-y33_38 <=1 
C1006: x33+x39 <=1 
C1007: x33+x40-y33_40 <=1 
C1008: x33+x42-y33_42 <=1 
C1009: x33+x46-y33_46 <=1 
C1010: x33+x47-y33_47 <=1 
C1011: x33+x48-y33_48 <=1 
C1012: x33+x50 <=1 
C1013: x33+x51-y33_51 <=1 
C1014: x33+x53 <=1 
C1015: x33+x54 <=1 
C1016: x33+x55 <=1 
C1017: x33+x56-y33_56 <=1 
C1018: x33+x57 <=1 
C1019: x33+x58 <=1 
C1020: x33+x60 <=1 
C1021: x33+x61 <=1 
C1022: x33+x62 <=1 
C1023: x33+x64-y33_64 <=1 
C1024: x33+x66 <=1 
C1025: x33+x67-y33_67 <=1 
C1026: x34+x35 <=1 
C1027: x34+x41-y34_41 <=1 
C1028: x34+x42 <=1 
C1029: x34+x43 <=1 
C1030: x34+x44-y34_44 <=1 
C1031: x34+x45-y34_45 <=1 
C1032: x34+x48 <=1 
C1033: x34+x49-y34_49 <=1 
C1034: x34+x50-y34_50 <=1 
C1035: x34+x52-y34_52 <=1 
C1036: x34+x54-y34_54 <=1 
C1037: x34+x55-y34_55 <=1 
C1038: x34+x56 <=1 
C1039: x34+x59 <=1 
C1040: x34+x64 <=1 
C1041: x34+x65-y34_65 <=1 
C1042: x34+x66 <=1 
C1043: x34+x67-y34_67 <=1 
C1044: x35+x36-y35_36 <=1 
C1045: x35+x37 <=1 
C1046: x35+x39-y35_39 <=1 
C1047: x35+x44 <=1 
C1048: x35+x46 <=1 
C1049: x35+x47 <=1 
C1050: x35+x48-y35_48 <=1 
C1051: x35+x49-y35_49 <=1 
C1052: x35+x53-y35_53 <=1 
C1053: x35+x54-y35_54 <=1 
C1054: x35+x59-y35_59 <=1 
C1055: x35+x63-y35_63 <=1 
C1056: x35+x64 <=1 
C1057: x35+x67 <=1 
C1058: x36+x38-y36_38 <=1 
C1059: x36+x39 <=1 
C1060: x36+x40 <=1 
C1061: x36+x42-y36_42 <=1 
C1062: x36+x44-y36_44 <=1 
C1063: x36+x46 <=1 
C1064: x36+x50 <=1 
C1065: x36+x52-y36_52 <=1 
C1066: x36+x53 <=1 
C1067: x36+x54-y36_54 <=1 
C1068: x36+x55-y36_55 <=1 
C1069: x36+x56-y36_56 <=1 
C1070: x36+x57-y36_57 <=1 
C1071: x36+x58-y36_58 <=1 
C1072: x36+x59-y36_59 <=1 
C1073: x36+x60-y36_60 <=1 
C1074: x36+x65-y36_65 <=1 
C1075: x36+x66-y36_66 <=1 
C1076: x37+x38-y37_38 <=1 
C1077: x37+x39 <=1 
C1078: x37+x42 <=1 
C1079: x37+x43-y37_43 <=1 
C1080: x37+x45-y37_45 <=1 
C1081: x37+x48-y37_48 <=1 
C1082: x37+x50 <=1 
C1083: x37+x51-y37_51 <=1 
C1084: x37+x52-y37_52 <=1 
C1085: x37+x54-y37_54 <=1 
C1086: x37+x58 <=1 
C1087: x37+x63-y37_63 <=1 
C1088: x37+x64 <=1 
C1089: x37+x66 <=1 
C1090: x38+x39-y38_39 <=1 
C1091: x38+x42 <=1 
C1092: x38+x46-y38_46 <=1 
C1093: x38+x47-y38_47 <=1 
C1094: x38+x49 <=1 
C1095: x38+x51 <=1 
C1096: x38+x52 <=1 
C1097: x38+x53 <=1 
C1098: x38+x54 <=1 
C1099: x38+x55-y38_55 <=1 
C1100: x38+x56 <=1 
C1101: x38+x58-y38_58 <=1 
C1102: x38+x59-y38_59 <=1 
C1103: x38+x61-y38_61 <=1 
C1104: x38+x62 <=1 
C1105: x38+x63-y38_63 <=1 
C1106: x38+x64-y38_64 <=1 
C1107: x38+x66 <=1 
C1108: x38+x67-y38_67 <=1 
C1109: x39+x41 <=1 
C1110: x39+x48 <=1 
C1111: x39+x50 <=1 
C1112: x39+x51 <=1 
C1113: x39+x52 <=1 
C1114: x39+x53-y39_53 <=1 
C1115: x39+x55 <=1 
C1116: x39+x56 <=1 
C1117: x39+x57-y39_57 <=1 
C1118: x39+x58 <=1 
C1119: x39+x59-y39_59 <=1 
C1120: x39+x60 <=1 
C1121: x39+x61 <=1 
C1122: x39+x62-y39_62 <=1 
C1123: x39+x63-y39_63 <=1 
C1124: x39+x64-y39_64 <=1 
C1125: x39+x67 <=1 
C1126: x40+x41-y40_41 <=1 
C1127: x40+x42 <=1 
C1128: x40+x43 <=1 
C1129: x40+x46-y40_46 <=1 
C1130: x40+x47 <=1 
C1131: x40+x48 <=1 
C1132: x40+x49-y40_49 <=1 
C1133: x40+x50 <=1 
C1134: x40+x52-y40_52 <=1 
C1135: x40+x53 <=1 
C1136: x40+x56 <=1 
C1137: x40+x57 <=1 
C1138: x40+x58-y40_58 <=1 
C1139: x40+x59 <=1 
C1140: x40+x60-y40_60 <=1 
C1141: x40+x62 <=1 
C1142: x40+x64 <=1 
C1143: x41+x43 <=1 
C1144: x41+x44 <=1 
C1145: x41+x46 <=1 
C1146: x41+x48 <=1 
C1147: x41+x49 <=1 
C1148: x41+x50 <=1 
C1149: x41+x51 <=1 
C1150: x41+x52-y41_52 <=1 
C1151: x41+x55 <=1 
C1152: x41+x56 <=1 
C1153: x41+x57-y41_57 <=1 
C1154: x41+x58 <=1 
C1155: x41+x59 <=1 
C1156: x41+x60-y41_60 <=1 
C1157: x41+x61 <=1 
C1158: x41+x62-y41_62 <=1 
C1159: x41+x63-y41_63 <=1 
C1160: x41+x65-y41_65 <=1 
C1161: x41+x67-y41_67 <=1 
C1162: x42+x46 <=1 
C1163: x42+x47-y42_47 <=1 
C1164: x42+x49-y42_49 <=1 
C1165: x42+x50-y42_50 <=1 
C1166: x42+x51-y42_51 <=1 
C1167: x42+x53 <=1 
C1168: x42+x54 <=1 
C1169: x42+x56 <=1 
C1170: x42+x59 <=1 
C1171: x42+x60 <=1 
C1172: x42+x61-y42_61 <=1 
C1173: x42+x63 <=1 
C1174: x42+x64 <=1 
C1175: x42+x65 <=1 
C1176: x42+x66-y42_66 <=1 
C1177: x42+x67 <=1 
C1178: x43+x47-y43_47 <=1 
C1179: x43+x49 <=1 
C1180: x43+x50 <=1 
C1181: x43+x51-y43_51 <=1 
C1182: x43+x52-y43_52 <=1 
C1183: x43+x53 <=1 
C1184: x43+x54 <=1 
C1185: x43+x55-y43_55 <=1 
C1186: x43+x56 <=1 
C1187: x43+x58-y43_58 <=1 
C1188: x43+x63 <=1 
C1189: x43+x65 <=1 
C1190: x43+x66 <=1 
C1191: x43+x67 <=1 
C1192: x44+x48 <=1 
C1193: x44+x49-y44_49 <=1 
C1194: x44+x50-y44_50 <=1 
C1195: x44+x53 <=1 
C1196: x44+x56-y44_56 <=1 
C1197: x44+x58 <=1 
C1198: x44+x59 <=1 
C1199: x44+x60-y44_60 <=1 
C1200: x44+x62 <=1 
C1201: x44+x64-y44_64 <=1 
C1202: x45+x46-y45_46 <=1 
C1203: x45+x47-y45_47 <=1 
C1204: x45+x48 <=1 
C1205: x45+x49 <=1 
C1206: x45+x57 <=1 
C1207: x45+x58 <=1 
C1208: x45+x59-y45_59 <=1 
C1209: x45+x61 <=1 
C1210: x45+x62-y45_62 <=1 
C1211: x45+x63 <=1 
C1212: x45+x67-y45_67 <=1 
C1213: x46+x47-y46_47 <=1 
C1214: x46+x48 <=1 
C1215: x46+x51 <=1 
C1216: x46+x52 <=1 
C1217: x46+x53 <=1 
C1218: x46+x55-y46_55 <=1 
C1219: x46+x58 <=1 
C1220: x46+x59 <=1 
C1221: x46+x60-y46_60 <=1 
C1222: x46+x61-y46_61 <=1 
C1223: x46+x62-y46_62 <=1 
C1224: x46+x63 <=1 
C1225: x46+x64-y46_64 <=1 
C1226: x46+x66-y46_66 <=1 
C1227: x46+x67-y46_67 <=1 
C1228: x47+x48 <=1 
C1229: x47+x49-y47_49 <=1 
C1230: x47+x50-y47_50 <=1 
C1231: x47+x52 <=1 
C1232: x47+x54-y47_54 <=1 
C1233: x47+x55 <=1 
C1234: x47+x57-y47_57 <=1 
C1235: x47+x60-y47_60 <=1 
C1236: x47+x61 <=1 
C1237: x47+x62 <=1 
C1238: x47+x63 <=1 
C1239: x47+x64-y47_64 <=1 
C1240: x47+x65-y47_65 <=1 
C1241: x48+x50 <=1 
C1242: x48+x51 <=1 
C1243: x48+x53-y48_53 <=1 
C1244: x48+x55 <=1 
C1245: x48+x56-y48_56 <=1 
C1246: x48+x58-y48_58 <=1 
C1247: x48+x59 <=1 
C1248: x48+x61-y48_61 <=1 
C1249: x48+x62-y48_62 <=1 
C1250: x48+x64-y48_64 <=1 
C1251: x48+x65 <=1 
C1252: x48+x66-y48_66 <=1 
C1253: x49+x50-y49_50 <=1 
C1254: x49+x52-y49_52 <=1 
C1255: x49+x53 <=1 
C1256: x49+x56 <=1 
C1257: x49+x57 <=1 
C1258: x49+x58-y49_58 <=1 
C1259: x49+x61 <=1 
C1260: x49+x63-y49_63 <=1 
C1261: x49+x64 <=1 
C1262: x49+x66-y49_66 <=1 
C1263: x50+x51-y50_51 <=1 
C1264: x50+x53 <=1 
C1265: x50+x54 <=1 
C1266: x50+x57-y50_57 <=1 
C1267: x50+x58 <=1 
C1268: x50+x60-y50_60 <=1 
C1269: x50+x61 <=1 
C1270: x50+x63-y50_63 <=1 
C1271: x50+x64-y50_64 <=1 
C1272: x50+x65 <=1 
C1273: x50+x67-y50_67 <=1 
C1274: x51+x52-y51_52 <=1 
C1275: x51+x53-y51_53 <=1 
C1276: x51+x56 <=1 
C1277: x51+x63-y51_63 <=1 
C1278: x51+x64-y51_64 <=1 
C1279: x51+x66 <=1 
C1280: x52+x54 <=1 
C1281: x52+x55 <=1 
C1282: x52+x56-y52_56 <=1 
C1283: x52+x57-y52_57 <=1 
C1284: x52+x58 <=1 
C1285: x52+x60 <=1 
C1286: x52+x62-y52_62 <=1 
C1287: x52+x64 <=1 
C1288: x52+x65 <=1 
C1289: x52+x67-y52_67 <=1 
C1290: x53+x55-y53_55 <=1 
C1291: x53+x56 <=1 
C1292: x53+x57 <=1 
C1293: x53+x58-y53_58 <=1 
C1294: x53+x59 <=1 
C1295: x53+x60-y53_60 <=1 
C1296: x53+x61 <=1 
C1297: x53+x62-y53_62 <=1 
C1298: x53+x64-y53_64 <=1 
C1299: x53+x67 <=1 
C1300: x54+x56-y54_56 <=1 
C1301: x54+x57-y54_57 <=1 
C1302: x54+x58-y54_58 <=1 
C1303: x54+x59-y54_59 <=1 
C1304: x54+x63 <=1 
C1305: x54+x65 <=1 
C1306: x54+x66-y54_66 <=1 
C1307: x54+x67-y54_67 <=1 
C1308: x55+x56 <=1 
C1309: x55+x57-y55_57 <=1 
C1310: x55+x58-y55_58 <=1 
C1311: x55+x59-y55_59 <=1 
C1312: x55+x60-y55_60 <=1 
C1313: x55+x61-y55_61 <=1 
C1314: x55+x62-y55_62 <=1 
C1315: x55+x64-y55_64 <=1 
C1316: x55+x65 <=1 
C1317: x55+x66 <=1 
C1318: x55+x67 <=1 
C1319: x56+x57-y56_57 <=1 
C1320: x56+x58 <=1 
C1321: x56+x64 <=1 
C1322: x56+x65 <=1 
C1323: x57+x58 <=1 
C1324: x57+x59 <=1 
C1325: x57+x62 <=1 
C1326: x57+x63 <=1 
C1327: x57+x64-y57_64 <=1 
C1328: x57+x65 <=1 
C1329: x57+x66 <=1 
C1330: x57+x67 <=1 
C1331: x58+x59-y58_59 <=1 
C1332: x58+x61 <=1 
C1333: x58+x62-y58_62 <=1 
C1334: x58+x63-y58_63 <=1 
C1335: x58+x64 <=1 
C1336: x58+x67-y58_67 <=1 
C1337: x59+x61-y59_61 <=1 
C1338: x59+x65-y59_65 <=1 
C1339: x59+x66-y59_66 <=1 
C1340: x59+x67 <=1 
C1341: x60+x61 <=1 
C1342: x60+x62 <=1 
C1343: x60+x63 <=1 
C1344: x60+x65-y60_65 <=1 
C1345: x60+x66-y60_66 <=1 
C1346: x60+x67 <=1 
C1347: x61+x64 <=1 
C1348: x61+x65 <=1 
C1349: x61+x66 <=1 
C1350: x62+x66 <=1 
C1351: x62+x67-y62_67 <=1 
C1352: x63+x67-y63_67 <=1 
C1353: x64+x65-y64_65 <=1 
C1354: x64+x66 <=1 
C1355: x65+x66-y65_66 <=1 
C1356: x65+x67 <=1 
C1357: x66+x67 <=1 

binary
x0
x1
x2
x3
x4
x5
x6
x7
x8
x9
x10
x11
x12
x13
x14
x15
x16
x17
x18
x19
x20
x21
x22
x23
x24
x25
x26
x27
x28
x29
x30
x31
x32
x33
x34
x35
x36
x37
x38
x39
x40
x41
x42
x43
x44
x45
x46
x47
x48
x49
x50
x51
x52
x53
x54
x55
x56
x57
x58
x59
x60
x61
x62
x63
x64
x65
x66
x67
