problem_generation/data/GISP/train/er_n=68_m=1357_p=0.60_SET2_setparam=100.00_alpha=0.50_297.sol
objective value:                                 1179
x0                                                  1 	(obj:100)
x2                                                  1 	(obj:100)
x3                                                  1 	(obj:100)
x18                                                 1 	(obj:100)
x24                                                 1 	(obj:100)
x25                                                 1 	(obj:100)
x47                                                 1 	(obj:100)
x51                                                 1 	(obj:100)
x53                                                 1 	(obj:100)
x58                                                 1 	(obj:100)
x60                                                 1 	(obj:100)
x65                                                 1 	(obj:100)
y47_65                                              1 	(obj:-1)
y3_18                                               1 	(obj:-1)
y51_53                                              1 	(obj:-1)
y0_60                                               1 	(obj:-1)
y18_58                                              1 	(obj:-1)
y0_18                                               1 	(obj:-1)
y18_47                                              1 	(obj:-1)
y18_24                                              1 	(obj:-1)
y47_60                                              1 	(obj:-1)
y2_25                                               1 	(obj:-1)
y24_53                                              1 	(obj:-1)
y24_47                                              1 	(obj:-1)
y0_58                                               1 	(obj:-1)
y53_60                                              1 	(obj:-1)
y24_51                                              1 	(obj:-1)
y18_65                                              1 	(obj:-1)
y0_47                                               1 	(obj:-1)
y25_58                                              1 	(obj:-1)
y53_58                                              1 	(obj:-1)
y60_65                                              1 	(obj:-1)
y2_60                                               1 	(obj:-1)
